(declare-sort Loc 0)
(declare-const f432_0_createList_Load Loc)
(declare-const f866_0_createList_Load Loc)
(declare-const f1_0_main_Load Loc)
(declare-const f1548_0_random_ArrayAccess Loc)
(declare-const f450_0_createList_Return Loc)
(declare-const f1516_0_createList_LE Loc)
(declare-const __init Loc)
(assert (distinct f432_0_createList_Load f866_0_createList_Load f1_0_main_Load f1548_0_random_ArrayAccess f450_0_createList_Return f1516_0_createList_LE __init ))

(define-fun cfg_init ( (pc Loc) (src Loc) (rel Bool) ) Bool
  (and (= pc src) rel))

(define-fun cfg_trans2 ( (pc Loc) (src Loc)
                         (pc1 Loc) (dst Loc)
                         (rel Bool) ) Bool
  (and (= pc src) (= pc1 dst) rel))

(define-fun cfg_trans3 ( (pc Loc) (exit Loc)
                         (pc1 Loc) (call Loc)
                         (pc2 Loc) (return Loc)
                         (rel Bool) ) Bool
  (and (= pc exit) (= pc1 call) (= pc2 return) rel))

(define-fun init_main ( (pc Loc) (arg1 Int) (arg2 Int) (arg3 Int) (arg4 Int) (arg5 Int) (arg6 Int) (arg7 Int) (arg8 Int) (arg9 Int) (arg10 Int) (arg11 Int) (arg12 Int) (arg13 Int) (arg14 Int) (arg15 Int) (arg16 Int) (arg17 Int) (arg18 Int) (arg19 Int) (arg20 Int) (arg21 Int) (arg22 Int) (arg23 Int) ) Bool
  (cfg_init pc __init true))

(define-fun next_main (
                 (pc Loc) (arg1 Int) (arg2 Int) (arg3 Int) (arg4 Int) (arg5 Int) (arg6 Int) (arg7 Int) (arg8 Int) (arg9 Int) (arg10 Int) (arg11 Int) (arg12 Int) (arg13 Int) (arg14 Int) (arg15 Int) (arg16 Int) (arg17 Int) (arg18 Int) (arg19 Int) (arg20 Int) (arg21 Int) (arg22 Int) (arg23 Int)
                 (pc1 Loc) (arg1P Int) (arg2P Int) (arg3P Int) (arg4P Int) (arg5P Int) (arg6P Int) (arg7P Int) (arg8P Int) (arg9P Int) (arg10P Int) (arg11P Int) (arg12P Int) (arg13P Int) (arg14P Int) (arg15P Int) (arg16P Int) (arg17P Int) (arg18P Int) (arg19P Int) (arg20P Int) (arg21P Int) (arg22P Int) (arg23P Int)
             ) Bool
  (or
    (cfg_trans2 pc f432_0_createList_Load pc1 f866_0_createList_Load (and (and (and (and (and (and (and (and (and (and (and (and (and (and (and (and (and (and (<= arg2P arg2) (> arg2 9)) (> arg2P 9)) (<= (+ arg7 3) arg2)) (<= (+ arg6 5) arg2)) (= arg1 arg1P)) (= 0 arg3P)) (= 0 arg4P)) (= arg4 arg5P)) (= arg6P arg7P)) (= 0 arg8P)) (= 0 arg9P)) (= 0 arg10P)) (= arg3 arg15P)) (= arg3 arg16P)) (= arg4 arg17P)) (= arg5 arg19P)) (= arg6 arg20P)) (= arg7 arg21P)))
    (cfg_trans2 pc f1_0_main_Load pc1 f1548_0_random_ArrayAccess (exists ((x19 Int)) (and (and (> x19 (- 1)) (> arg2 0)) (> arg1 0))))
    (cfg_trans2 pc f450_0_createList_Return pc1 f1548_0_random_ArrayAccess (and (and (and (> arg1 0) (= arg4 arg1P)) (= arg2 arg2P)) (= arg3 arg3P)))
    (cfg_trans2 pc f1_0_main_Load pc1 f432_0_createList_Load (and (and (and (and (and (and (and (> arg1P (- 1)) (> arg2 0)) (<= (- arg2P 7) arg1)) (> arg1 0)) (> arg2P 7)) (= 1 arg5P)) (= 0 arg6P)) (= 0 arg7P)))
    (cfg_trans2 pc f866_0_createList_Load pc1 f1516_0_createList_LE (and (and (and (and (and (and (and (and (and (and (and (and (and (and (and (and (and (and (and (and (and (and (and (> arg2 11) (> arg1P 11)) (<= (+ arg21 3) arg2)) (<= (+ arg20 5) arg2)) (= arg1 arg2P)) (= arg13 arg3P)) (= arg11 arg4P)) (= arg7 arg5P)) (= arg12 arg6P)) (= arg6 arg7P)) (= arg3 arg9P)) (= arg14 arg10P)) (= arg5 arg11P)) (= 0 arg12P)) (= arg4 arg13P)) (= arg8 arg14P)) (= arg9 arg15P)) (= arg10 arg16P)) (= arg15 arg17P)) (= arg16 arg18P)) (= arg17 arg19P)) (= arg19 arg20P)) (= arg20 arg22P)) (= arg21 arg23P)))
    (cfg_trans2 pc f1516_0_createList_LE pc1 f1516_0_createList_LE (exists ((x55 Int) (x92 Int)) (and (and (and (and (and (and (and (and (and (and (and (and (and (and (and (and (and (and (and (and (and (and (and (and (and (and (and (and (and (and (and (and (and (and (and (and (> arg2 0) (> x55 (- 1))) (> arg6 0)) (> arg3 0)) (> arg20 (- 1))) (< arg20 x55)) (> arg10 0)) (> arg4 0)) (> arg13 0)) (> arg11 0)) (> arg12 0)) (> x92 (- 1))) (> arg9 0)) (> arg5 0)) (> arg18 0)) (> arg14 0)) (> arg19 0)) (> arg17 0)) (> arg15 0)) (> arg16 0)) (> arg23 (- 1))) (> arg22 (- 1))) (> arg1 9)) (> arg1P 9)) (<= (+ arg21 9) arg1)) (<= (+ arg23 3) arg1)) (<= (+ arg22 5) arg1)) (= (- arg2 1) arg2P)) (= arg3 arg3P)) (= arg6 arg6P)) (= arg7 arg7P)) (= arg8 arg8P)) (= arg10 arg10P)) (= arg12 arg12P)) (= (+ arg20 1) arg20P)) (= (+ arg22 1) arg22P)) (= (+ arg23 1) arg23P))))
    (cfg_trans2 pc f1516_0_createList_LE pc1 f1516_0_createList_LE (exists ((x93 Int) (x124 Int)) (and (and (and (and (and (and (and (and (and (and (and (and (and (and (and (and (and (and (and (and (and (and (and (and (and (and (and (and (and (and (and (and (and (and (and (> arg2 0) (> x93 (- 1))) (> arg6 0)) (> arg3 0)) (> arg20 (- 1))) (< arg20 x93)) (> arg10 0)) (> arg12 0)) (> x124 (- 1))) (> arg18 0)) (> arg19 0)) (> arg17 0)) (> arg8 0)) (> arg23 (- 1))) (> arg22 (- 1))) (> arg1 11)) (> arg1P 13)) (>= arg1 (+ arg21 9))) (>= arg1 (+ arg23 3))) (>= arg1 (+ arg22 5))) (= arg8 arg9)) (= arg10 arg11)) (= arg12 arg13)) (= arg7 arg16)) (= (- arg2 1) arg2P)) (= 0 arg3P)) (= 1 arg4P)) (= 1 arg5P)) (= arg8 arg8P)) (= arg10 arg10P)) (= arg12 arg12P)) (= 0 arg13P)) (= 2 arg15P)) (= (+ arg20 1) arg20P)) (= (+ arg22 1) arg22P)) (= (+ arg23 1) arg23P))))
    (cfg_trans2 pc __init pc1 f1_0_main_Load true)
  )
)
